* #variable= 4 #constraint= 4 #product= 10 sizeproduct= 8
min: 1 x2 x1 1 x4 x3 ;
1 x2 ~x1 1 x2 x1 >= 1;
1 x1 ~x2 1 x1 x2 >= 1;
1 x2 ~x1 1 x4 ~x3 1 x2 x1 x4 x3 >= 1;
1 x1 ~x2 1 x3 ~x4 1 x1 x2 x3 x4 >= 1;
